(set-info :source |printed by MathSAT|)
(declare-fun |!{a1.1}| () (Array Int Int))
(declare-fun |!{a1.1}.next| () (Array Int Int))
(declare-fun |!{a2.2}| () (Array Int Int))
(declare-fun |!{a2.2}.next| () (Array Int Int))
(declare-fun |!{a3.3}| () (Array Int Int))
(declare-fun |!{a3.3}.next| () (Array Int Int))
(declare-fun |!{N}| () Int)
(declare-fun |!{N}.next| () Int)
(declare-fun |!{i}| () Int)
(declare-fun |!{i}.next| () Int)
(declare-fun |!{x}| () Int)
(declare-fun |!{x}.next| () Int)
(declare-fun |!pc[0]| () Bool)
(declare-fun |!pc[0].next| () Bool)
(declare-fun |!pc[1]| () Bool)
(declare-fun |!pc[1].next| () Bool)
(declare-fun |!pc[2]| () Bool)
(declare-fun |!pc[2].next| () Bool)
(declare-fun |%{x}#1| () Int)
(declare-fun |%{a1.1}#1| () (Array Int Int))
(declare-fun |%{a2.2}#1| () (Array Int Int))
(declare-fun |%{a3.3}#1| () (Array Int Int))
(declare-fun nd<0> () Int)
(declare-fun nd_char<0> () Int)
(declare-fun arrlambda_0 () Int)
(declare-fun arrlambda_0.next () Int)
(declare-fun proph0 () Int)
(declare-fun proph0.next () Int)
(define-fun .def_10 () Bool (! |!pc[2]| :next |!pc[2].next|))
(define-fun .def_12 () Bool (! |!pc[1]| :next |!pc[1].next|))
(define-fun .def_14 () Bool (! |!pc[0]| :next |!pc[0].next|))
(define-fun .def_27 () (Array Int Int) (! |!{a2.2}| :next |!{a2.2}.next|))
(define-fun .def_30 () (Array Int Int) (! |!{a1.1}| :next |!{a1.1}.next|))
(define-fun .def_34 () (Array Int Int) (! |!{a3.3}| :next |!{a3.3}.next|))
(define-fun .def_38 () Int (! |!{N}| :next |!{N}.next|))
(define-fun .def_46 () Int (! |!{x}| :next |!{x}.next|))
(define-fun .def_50 () Int (! |!{i}| :next |!{i}.next|))
(define-fun .def_330 () Int (! arrlambda_0 :next |arrlambda_0.next|))
(define-fun .def_29722 () Int (! proph0 :next |proph0.next|))
(define-fun .def_15 () Bool (not .def_14))
(define-fun .def_13 () Bool (not .def_12))
(define-fun .def_16 () Bool (and .def_13 .def_15))
(define-fun .def_11 () Bool (not .def_10))
(define-fun .def_17 () Bool (! (and .def_11 .def_16) :init true))
(define-fun .def_44789 () Int (select .def_34 .def_29722))
(define-fun .def_44776 () Int (select |!{a3.3}.next| .def_29722))
(define-fun .def_44814 () Bool (= .def_44776 .def_44789))
(define-fun .def_36 () Bool (= .def_34 |!{a3.3}.next|))
(define-fun .def_44756 () Bool (not .def_36))
(define-fun .def_44815 () Bool (or .def_44756 .def_44814))
(define-fun .def_44798 () Int (select .def_27 .def_29722))
(define-fun .def_44785 () Int (select |!{a2.2}.next| .def_29722))
(define-fun .def_44811 () Bool (= .def_44785 .def_44798))
(define-fun .def_29 () Bool (= .def_27 |!{a2.2}.next|))
(define-fun .def_44748 () Bool (not .def_29))
(define-fun .def_44812 () Bool (or .def_44748 .def_44811))
(define-fun .def_44807 () Int (select .def_34 |!{i}.next|))
(define-fun .def_44806 () Int (select |!{a3.3}.next| |!{i}.next|))
(define-fun .def_44808 () Bool (= .def_44806 .def_44807))
(define-fun .def_44809 () Bool (or .def_44756 .def_44808))
(define-fun .def_44768 () Int (select |!{a2.2}.next| .def_50))
(define-fun .def_90 () Int (select .def_27 .def_50))
(define-fun .def_44803 () Bool (= .def_90 .def_44768))
(define-fun .def_44804 () Bool (or .def_44748 .def_44803))
(define-fun .def_58 () (Array Int Int) (store .def_27 .def_50 nd_char<0>))
(define-fun .def_44784 () Int (select .def_58 .def_29722))
(define-fun .def_44799 () Bool (= .def_44784 .def_44798))
(define-fun .def_29987 () Bool (= .def_50 .def_29722))
(define-fun .def_44800 () Bool (or .def_29987 .def_44799))
(define-fun .def_60 () (Array Int Int) (store .def_30 .def_50 nd_char<0>))
(define-fun .def_44780 () Int (select .def_60 .def_29722))
(define-fun .def_44710 () Int (select .def_30 .def_29722))
(define-fun .def_44794 () Bool (= .def_44710 .def_44780))
(define-fun .def_44795 () Bool (or .def_29987 .def_44794))
(define-fun .def_91 () (Array Int Int) (store .def_34 .def_50 .def_90))
(define-fun .def_44775 () Int (select .def_91 .def_29722))
(define-fun .def_44790 () Bool (= .def_44775 .def_44789))
(define-fun .def_44791 () Bool (or .def_29987 .def_44790))
(define-fun .def_44786 () Bool (= .def_44784 .def_44785))
(define-fun .def_59 () Bool (= |!{a2.2}.next| .def_58))
(define-fun .def_44770 () Bool (not .def_59))
(define-fun .def_44787 () Bool (or .def_44770 .def_44786))
(define-fun .def_44711 () Int (select |!{a1.1}.next| .def_29722))
(define-fun .def_44781 () Bool (= .def_44711 .def_44780))
(define-fun .def_61 () Bool (= |!{a1.1}.next| .def_60))
(define-fun .def_44765 () Bool (not .def_61))
(define-fun .def_44782 () Bool (or .def_44765 .def_44781))
(define-fun .def_44777 () Bool (= .def_44775 .def_44776))
(define-fun .def_92 () Bool (= |!{a3.3}.next| .def_91))
(define-fun .def_44761 () Bool (not .def_92))
(define-fun .def_44778 () Bool (or .def_44761 .def_44777))
(define-fun .def_44729 () Int (select .def_58 .def_50))
(define-fun .def_44769 () Bool (= .def_44729 .def_44768))
(define-fun .def_44771 () Bool (or .def_44769 .def_44770))
(define-fun .def_44743 () Int (select |!{a1.1}.next| .def_50))
(define-fun .def_44725 () Int (select .def_60 .def_50))
(define-fun .def_44764 () Bool (= .def_44725 .def_44743))
(define-fun .def_44766 () Bool (or .def_44764 .def_44765))
(define-fun .def_44759 () Int (select |!{a3.3}.next| .def_50))
(define-fun .def_44721 () Int (select .def_91 .def_50))
(define-fun .def_44760 () Bool (= .def_44721 .def_44759))
(define-fun .def_44762 () Bool (or .def_44760 .def_44761))
(define-fun .def_44754 () Int (select .def_34 |!{x}.next|))
(define-fun .def_44753 () Int (select |!{a3.3}.next| |!{x}.next|))
(define-fun .def_44755 () Bool (= .def_44753 .def_44754))
(define-fun .def_44757 () Bool (or .def_44755 .def_44756))
(define-fun .def_44749 () Int (select .def_27 |!{i}.next|))
(define-fun .def_44704 () Int (select |!{a2.2}.next| |!{i}.next|))
(define-fun .def_44750 () Bool (= .def_44704 .def_44749))
(define-fun .def_44751 () Bool (or .def_44748 .def_44750))
(define-fun .def_44744 () Int (select .def_30 .def_50))
(define-fun .def_44745 () Bool (= .def_44743 .def_44744))
(define-fun .def_32 () Bool (= .def_30 |!{a1.1}.next|))
(define-fun .def_44713 () Bool (not .def_32))
(define-fun .def_44746 () Bool (or .def_44713 .def_44745))
(define-fun .def_44739 () Int (select .def_30 |!{x}.next|))
(define-fun .def_44738 () Int (select |!{a1.1}.next| |!{x}.next|))
(define-fun .def_44740 () Bool (= .def_44738 .def_44739))
(define-fun .def_44741 () Bool (or .def_44713 .def_44740))
(define-fun .def_44734 () Int (select .def_30 |!{i}.next|))
(define-fun .def_44733 () Int (select |!{a1.1}.next| |!{i}.next|))
(define-fun .def_44735 () Bool (= .def_44733 .def_44734))
(define-fun .def_44736 () Bool (or .def_44713 .def_44735))
(define-fun .def_44730 () Bool (= nd_char<0> .def_44729))
(define-fun .def_44726 () Bool (= nd_char<0> .def_44725))
(define-fun .def_44722 () Bool (= .def_90 .def_44721))
(define-fun .def_332 () Bool (= .def_330 arrlambda_0.next))
(define-fun .def_159 () Bool (<= nd<0> 0))
(define-fun .def_160 () Bool (not .def_159))
(define-fun .def_153 () Bool (= |!{a1.1}.next| |%{a1.1}#1|))
(define-fun .def_151 () Bool (= |!{a2.2}.next| |%{a2.2}#1|))
(define-fun .def_154 () Bool (and .def_151 .def_153))
(define-fun .def_149 () Bool (= |!{a3.3}.next| |%{a3.3}#1|))
(define-fun .def_155 () Bool (and .def_149 .def_154))
(define-fun .def_147 () Bool (= |!{N}.next| nd<0>))
(define-fun .def_156 () Bool (and .def_147 .def_155))
(define-fun .def_44 () Bool (= |!{i}.next| 0))
(define-fun .def_157 () Bool (and .def_44 .def_156))
(define-fun .def_145 () Bool (= |!{x}.next| |%{x}#1|))
(define-fun .def_158 () Bool (and .def_145 .def_157))
(define-fun .def_161 () Bool (and .def_158 .def_160))
(define-fun .def_54 () Bool (not |!pc[2].next|))
(define-fun .def_21 () Bool (not |!pc[1].next|))
(define-fun .def_23 () Bool (and .def_21 |!pc[0].next|))
(define-fun .def_55 () Bool (and .def_23 .def_54))
(define-fun .def_143 () Bool (and .def_17 .def_55))
(define-fun .def_162 () Bool (and .def_143 .def_161))
(define-fun .def_123 () Int (select .def_30 .def_46))
(define-fun .def_122 () Int (select .def_34 .def_46))
(define-fun .def_124 () Bool (= .def_122 .def_123))
(define-fun .def_132 () Bool (not .def_124))
(define-fun .def_133 () Bool (and .def_32 .def_132))
(define-fun .def_134 () Bool (and .def_29 .def_133))
(define-fun .def_135 () Bool (and .def_36 .def_134))
(define-fun .def_40 () Bool (= .def_38 |!{N}.next|))
(define-fun .def_136 () Bool (and .def_40 .def_135))
(define-fun .def_84 () Bool (= |!{i}.next| .def_50))
(define-fun .def_137 () Bool (and .def_84 .def_136))
(define-fun .def_48 () Bool (= .def_46 |!{x}.next|))
(define-fun .def_138 () Bool (and .def_48 .def_137))
(define-fun .def_113 () Bool (<= .def_38 .def_46))
(define-fun .def_126 () Bool (not .def_113))
(define-fun .def_139 () Bool (and .def_126 .def_138))
(define-fun .def_129 () Bool (and |!pc[1].next| |!pc[0].next|))
(define-fun .def_130 () Bool (and .def_54 .def_129))
(define-fun .def_110 () Bool (and .def_12 .def_15))
(define-fun .def_111 () Bool (and .def_11 .def_110))
(define-fun .def_131 () Bool (and .def_111 .def_130))
(define-fun .def_140 () Bool (and .def_131 .def_139))
(define-fun .def_103 () Int (* (- 1) |!{x}.next|))
(define-fun .def_104 () Int (+ .def_46 .def_103))
(define-fun .def_105 () Bool (= .def_104 (- 1)))
(define-fun .def_33 () Bool (and .def_29 .def_32))
(define-fun .def_37 () Bool (and .def_33 .def_36))
(define-fun .def_41 () Bool (and .def_37 .def_40))
(define-fun .def_85 () Bool (and .def_41 .def_84))
(define-fun .def_106 () Bool (and .def_85 .def_105))
(define-fun .def_125 () Bool (and .def_106 .def_124))
(define-fun .def_127 () Bool (and .def_125 .def_126))
(define-fun .def_79 () Bool (not |!pc[0].next|))
(define-fun .def_80 () Bool (and |!pc[1].next| .def_79))
(define-fun .def_81 () Bool (and .def_54 .def_80))
(define-fun .def_121 () Bool (and .def_81 .def_111))
(define-fun .def_128 () Bool (and .def_121 .def_127))
(define-fun .def_141 () Bool (or .def_128 .def_140))
(define-fun .def_114 () Bool (and .def_32 .def_113))
(define-fun .def_115 () Bool (and .def_29 .def_114))
(define-fun .def_116 () Bool (and .def_36 .def_115))
(define-fun .def_117 () Bool (and .def_40 .def_116))
(define-fun .def_118 () Bool (and .def_84 .def_117))
(define-fun .def_119 () Bool (and .def_48 .def_118))
(define-fun .def_108 () Bool (and .def_21 .def_79))
(define-fun .def_109 () Bool (and |!pc[2].next| .def_108))
(define-fun .def_112 () Bool (and .def_109 .def_111))
(define-fun .def_120 () Bool (and .def_112 .def_119))
(define-fun .def_142 () Bool (or .def_120 .def_141))
(define-fun .def_163 () Bool (or .def_142 .def_162))
(define-fun .def_100 () Bool (and .def_12 .def_14))
(define-fun .def_101 () Bool (and .def_11 .def_100))
(define-fun .def_102 () Bool (and .def_81 .def_101))
(define-fun .def_107 () Bool (and .def_102 .def_106))
(define-fun .def_164 () Bool (or .def_107 .def_163))
(define-fun .def_93 () Bool (and .def_33 .def_92))
(define-fun .def_94 () Bool (and .def_40 .def_93))
(define-fun .def_69 () Int (* (- 1) .def_50))
(define-fun .def_70 () Int (+ |!{i}.next| .def_69))
(define-fun .def_71 () Bool (= .def_70 1))
(define-fun .def_95 () Bool (and .def_71 .def_94))
(define-fun .def_96 () Bool (and .def_48 .def_95))
(define-fun .def_51 () Bool (<= .def_38 .def_50))
(define-fun .def_74 () Bool (not .def_51))
(define-fun .def_97 () Bool (and .def_74 .def_96))
(define-fun .def_18 () Bool (and .def_13 .def_14))
(define-fun .def_78 () Bool (and .def_10 .def_18))
(define-fun .def_25 () Bool (and .def_23 |!pc[2].next|))
(define-fun .def_89 () Bool (and .def_25 .def_78))
(define-fun .def_98 () Bool (and .def_89 .def_97))
(define-fun .def_83 () Bool (= |!{x}.next| 0))
(define-fun .def_86 () Bool (and .def_83 .def_85))
(define-fun .def_87 () Bool (and .def_51 .def_86))
(define-fun .def_82 () Bool (and .def_78 .def_81))
(define-fun .def_88 () Bool (and .def_82 .def_87))
(define-fun .def_99 () Bool (or .def_88 .def_98))
(define-fun .def_165 () Bool (or .def_99 .def_164))
(define-fun .def_62 () Bool (and .def_59 .def_61))
(define-fun .def_63 () Bool (and .def_36 .def_62))
(define-fun .def_64 () Bool (and .def_40 .def_63))
(define-fun .def_72 () Bool (and .def_64 .def_71))
(define-fun .def_73 () Bool (and .def_48 .def_72))
(define-fun .def_75 () Bool (and .def_73 .def_74))
(define-fun .def_19 () Bool (and .def_11 .def_18))
(define-fun .def_56 () Bool (and .def_19 .def_55))
(define-fun .def_76 () Bool (and .def_56 .def_75))
(define-fun .def_45 () Bool (and .def_41 .def_44))
(define-fun .def_49 () Bool (and .def_45 .def_48))
(define-fun .def_52 () Bool (and .def_49 .def_51))
(define-fun .def_26 () Bool (and .def_19 .def_25))
(define-fun .def_53 () Bool (and .def_26 .def_52))
(define-fun .def_77 () Bool (or .def_53 .def_76))
(define-fun .def_166 () Bool (or .def_77 .def_165))
(define-fun .def_1223 () Bool (and .def_166 .def_332))
(define-fun .def_167 () Bool (not .def_101))
(define-fun .def_1224 () Bool (and .def_167 .def_1223))
(define-fun .def_44723 () Bool (and .def_1224 .def_44722))
(define-fun .def_44705 () (Array Int Int) (store |!{a3.3}.next| |!{i}.next| .def_44704))
(define-fun .def_44719 () Int (select .def_44705 |!{i}.next|))
(define-fun .def_44720 () Bool (= .def_44704 .def_44719))
(define-fun .def_44724 () Bool (and .def_44720 .def_44723))
(define-fun .def_44727 () Bool (and .def_44724 .def_44726))
(define-fun .def_44699 () (Array Int Int) (store |!{a1.1}.next| |!{i}.next| nd_char<0>))
(define-fun .def_44717 () Int (select .def_44699 |!{i}.next|))
(define-fun .def_44718 () Bool (= nd_char<0> .def_44717))
(define-fun .def_44728 () Bool (and .def_44718 .def_44727))
(define-fun .def_44731 () Bool (and .def_44728 .def_44730))
(define-fun .def_44694 () (Array Int Int) (store |!{a2.2}.next| |!{i}.next| nd_char<0>))
(define-fun .def_44715 () Int (select .def_44694 |!{i}.next|))
(define-fun .def_44716 () Bool (= nd_char<0> .def_44715))
(define-fun .def_44732 () Bool (and .def_44716 .def_44731))
(define-fun .def_44737 () Bool (and .def_44732 .def_44736))
(define-fun .def_44742 () Bool (and .def_44737 .def_44741))
(define-fun .def_44747 () Bool (and .def_44742 .def_44746))
(define-fun .def_44752 () Bool (and .def_44747 .def_44751))
(define-fun .def_44758 () Bool (and .def_44752 .def_44757))
(define-fun .def_44763 () Bool (and .def_44758 .def_44762))
(define-fun .def_44767 () Bool (and .def_44763 .def_44766))
(define-fun .def_44772 () Bool (and .def_44767 .def_44771))
(define-fun .def_29725 () Bool (= .def_29722 proph0.next))
(define-fun .def_44773 () Bool (and .def_29725 .def_44772))
(define-fun .def_44712 () Bool (= .def_44710 .def_44711))
(define-fun .def_44714 () Bool (or .def_44712 .def_44713))
(define-fun .def_44774 () Bool (and .def_44714 .def_44773))
(define-fun .def_44779 () Bool (and .def_44774 .def_44778))
(define-fun .def_44783 () Bool (and .def_44779 .def_44782))
(define-fun .def_44788 () Bool (and .def_44783 .def_44787))
(define-fun .def_44792 () Bool (and .def_44788 .def_44791))
(define-fun .def_44707 () Int (select |!{a3.3}.next| proph0.next))
(define-fun .def_44706 () Int (select .def_44705 proph0.next))
(define-fun .def_44708 () Bool (= .def_44706 .def_44707))
(define-fun .def_35007 () Bool (= |!{i}.next| proph0.next))
(define-fun .def_44709 () Bool (or .def_35007 .def_44708))
(define-fun .def_44793 () Bool (and .def_44709 .def_44792))
(define-fun .def_44796 () Bool (and .def_44793 .def_44795))
(define-fun .def_44701 () Int (select |!{a1.1}.next| proph0.next))
(define-fun .def_44700 () Int (select .def_44699 proph0.next))
(define-fun .def_44702 () Bool (= .def_44700 .def_44701))
(define-fun .def_44703 () Bool (or .def_35007 .def_44702))
(define-fun .def_44797 () Bool (and .def_44703 .def_44796))
(define-fun .def_44801 () Bool (and .def_44797 .def_44800))
(define-fun .def_44696 () Int (select |!{a2.2}.next| proph0.next))
(define-fun .def_44695 () Int (select .def_44694 proph0.next))
(define-fun .def_44697 () Bool (= .def_44695 .def_44696))
(define-fun .def_44698 () Bool (or .def_35007 .def_44697))
(define-fun .def_44802 () Bool (and .def_44698 .def_44801))
(define-fun .def_44805 () Bool (and .def_44802 .def_44804))
(define-fun .def_44810 () Bool (and .def_44805 .def_44809))
(define-fun .def_44813 () Bool (and .def_44810 .def_44812))
(define-fun .def_44816 () Bool (! (and .def_44813 .def_44815) :trans true))
(define-fun .def_29723 () Bool (= .def_46 .def_29722))
(define-fun .def_29727 () Bool (not .def_29723))
(define-fun .def_29728 () Bool (! (or .def_167 .def_29727) :invar-property 0))
(assert true)
